0 2457
1 2370
2 2342
3 2325
4 2290
5 2290
6 2290
7 2290
8 2290
9 2290
10 2290
11 2290
12 2290
13 2290
14 2290
15 2290
16 2290
17 2290
18 2290
19 2290
20 2290
21 2290
22 2290
23 2290
24 2290
25 2290
26 2290
27 2290
28 2290
29 2290
30 2290
31 2290
32 2290
33 2162
34 2162
35 2075
36 2075
37 2075
38 2075
39 2075
40 2075
41 2075
42 2075
43 2075
44 2075
45 2075
46 2075
47 2075
48 2075
49 2075
50 2034
51 2032
52 2032
53 2032
54 2032
55 2032
56 2032
57 2032
58 2032
59 2032
60 2032
61 2032
62 2032
63 2032
64 2032
65 2032
66 2032
67 2032
68 2032
69 2032
70 2032
71 2032
72 2032
73 2032
74 2032
75 2032
76 2032
77 2032
78 2032
79 2032
80 2032
81 2032
82 2032
83 2032
84 2032
85 2032
86 2032
87 2032
88 2032
89 2032
90 2032
91 2032
92 1910
93 1910
94 1910
95 1910
96 1910
97 1910
98 1910
99 1910
100 1910
101 1910
102 1910
103 1910
104 1910
105 1910
106 1910
107 1910
108 1910
109 1907
110 1821
111 1821
112 1821
113 1821
114 1821
115 1821
116 1821
117 1821
118 1821
119 1821
120 1821
121 1821
122 1821
123 1821
124 1821
125 1821
126 1821
127 1813
128 1813
129 1760
130 1741
131 1741
132 1741
133 1741
134 1741
135 1741
136 1741
137 1741
138 1741
139 1741
140 1741
141 1741
142 1741
143 1741
144 1741
145 1741
146 1741
147 1741
148 1741
149 1741
150 1741
151 1741
152 1741
153 1741
154 1741
155 1741
156 1741
157 1741
158 1741
159 1741
160 1741
161 1741
162 1741
163 1741
164 1701
165 1701
166 1701
167 1701
168 1701
169 1701
170 1701
171 1701
172 1701
173 1701
174 1701
175 1701
176 1701
177 1701
178 1701
179 1701
180 1701
181 1701
182 1701
183 1701
184 1701
185 1701
186 1701
187 1701
188 1701
189 1701
190 1701
191 1701
192 1701
193 1701
194 1701
195 1701
196 1701
197 1701
198 1701
199 1701
200 1701
201 1701
202 1701
203 1701
204 1701
205 1701
206 1701
207 1701
208 1701
209 1701
210 1701
211 1701
212 1701
213 1701
214 1701
215 1701
216 1701
217 1701
218 1701
219 1701
220 1701
221 1701
222 1701
223 1701
224 1701
225 1701
226 1701
227 1701
228 1701
229 1701
230 1701
231 1701
232 1701
233 1701
234 1701
235 1701
236 1701
237 1701
238 1701
239 1701
240 1701
241 1701
242 1701
243 1701
244 1701
245 1701
246 1701
247 1701
248 1701
249 1701
250 1701
251 1701
252 1701
253 1701
254 1701
255 1701
256 1701
257 1701
258 1701
259 1701
260 1701
261 1701
262 1701
263 1701
264 1701
265 1701
266 1701
267 1701
268 1701
269 1701
270 1701
271 1701
272 1701
273 1701
274 1701
275 1701
276 1701
277 1701
278 1701
279 1701
280 1701
281 1678
282 1678
283 1678
284 1678
285 1678
286 1678
287 1678
288 1678
289 1678
290 1678
291 1678
292 1678
293 1678
294 1678
295 1678
296 1678
297 1678
298 1678
299 1678
300 1678
301 1678
302 1678
303 1678
304 1678
305 1678
306 1678
307 1678
308 1678
309 1678
310 1678
311 1678
312 1678
313 1678
314 1678
315 1678
316 1678
317 1678
318 1678
319 1678
320 1678
321 1678
322 1678
323 1678
324 1678
325 1678
326 1678
327 1678
328 1678
329 1678
330 1678
331 1678
332 1678
333 1678
334 1678
335 1678
336 1678
337 1678
338 1678
339 1613
340 1613
341 1613
342 1613
343 1613
344 1613
345 1613
346 1613
347 1613
348 1613
349 1613
350 1613
351 1613
352 1613
353 1613
354 1613
355 1613
356 1613
357 1613
358 1613
359 1613
360 1613
361 1613
362 1613
363 1613
364 1613
365 1613
366 1613
367 1613
368 1613
369 1606
370 1599
371 1599
372 1599
373 1599
374 1599
375 1599
376 1599
377 1599
378 1599
379 1599
380 1599
381 1599
382 1599
383 1599
384 1599
385 1599
386 1599
387 1599
388 1599
389 1599
390 1599
391 1599
392 1599
393 1599
394 1599
395 1599
396 1599
397 1599
398 1599
399 1599
400 1599
401 1599
402 1599
403 1599
404 1599
405 1599
406 1599
407 1599
408 1599
409 1599
410 1544
411 1544
412 1544
413 1544
414 1544
415 1544
416 1544
417 1544
418 1544
419 1544
420 1511
421 1511
422 1511
423 1511
424 1511
425 1511
426 1511
427 1511
428 1511
429 1504
430 1504
431 1504
432 1504
433 1504
434 1504
435 1504
436 1504
437 1504
438 1504
439 1504
440 1504
441 1504
442 1504
443 1504
444 1504
445 1504
446 1504
447 1504
448 1504
449 1504
450 1504
451 1504
452 1504
453 1504
454 1504
455 1504
456 1504
457 1504
458 1504
459 1504
460 1483
461 1483
462 1483
463 1483
464 1483
465 1462
466 1462
467 1462
468 1462
469 1462
470 1462
471 1462
472 1462
473 1462
474 1462
475 1462
476 1462
477 1462
478 1462
479 1462
480 1462
481 1462
482 1462
483 1462
484 1462
485 1462
486 1462
487 1462
488 1462
489 1462
490 1462
491 1462
492 1462
493 1462
494 1462
495 1462
496 1462
497 1462
498 1462
499 1462
500 1462
501 1462
502 1462
503 1462
504 1462
505 1462
506 1462
507 1462
508 1462
509 1462
510 1462
511 1462
512 1462
513 1462
514 1462
515 1462
516 1462
517 1462
518 1462
519 1462
520 1462
521 1462
522 1462
523 1462
524 1462
525 1462
526 1462
527 1462
528 1462
529 1462
530 1462
531 1462
532 1462
533 1462
534 1462
535 1462
536 1462
537 1462
538 1462
539 1462
540 1462
541 1462
542 1462
543 1462
544 1462
545 1462
546 1462
547 1462
548 1462
549 1462
550 1462
551 1462
552 1462
553 1462
554 1462
555 1462
556 1462
557 1462
558 1462
559 1462
560 1462
561 1462
562 1462
563 1462
564 1462
565 1462
566 1462
567 1462
568 1462
569 1462
570 1462
571 1462
572 1462
573 1462
574 1462
575 1462
576 1462
577 1462
578 1462
579 1462
580 1462
581 1462
582 1462
583 1462
584 1462
585 1462
586 1462
587 1462
588 1462
589 1462
590 1462
591 1462
592 1462
593 1462
594 1462
595 1462
596 1462
597 1462
598 1462
599 1462
600 1462
601 1462
602 1462
603 1462
604 1462
605 1462
606 1462
607 1462
608 1462
609 1462
610 1462
611 1462
612 1462
613 1462
614 1462
615 1462
616 1462
617 1462
618 1462
619 1462
620 1462
621 1462
622 1462
623 1462
624 1462
625 1462
626 1462
627 1462
628 1462
629 1462
630 1462
631 1462
632 1462
633 1462
634 1462
635 1462
636 1462
637 1462
638 1462
639 1462
640 1462
641 1462
642 1462
643 1462
644 1462
645 1462
646 1462
647 1462
648 1462
649 1462
650 1462
651 1462
652 1462
653 1462
654 1462
655 1462
656 1462
657 1462
658 1462
659 1462
660 1462
661 1462
662 1462
663 1462
664 1462
665 1462
666 1462
667 1462
668 1462
669 1462
670 1462
671 1462
672 1462
673 1462
674 1462
675 1462
676 1462
677 1462
678 1462
679 1462
680 1462
681 1462
682 1462
683 1462
684 1462
685 1462
686 1462
687 1462
688 1462
689 1462
690 1462
691 1462
692 1462
693 1462
694 1462
695 1462
696 1462
697 1462
698 1462
699 1462
700 1462
701 1462
702 1462
703 1462
704 1462
705 1462
706 1462
707 1462
708 1462
709 1462
710 1462
711 1462
712 1462
713 1462
714 1462
715 1462
716 1462
717 1462
718 1462
719 1462
720 1462
721 1462
722 1462
723 1462
724 1462
725 1462
726 1462
727 1462
728 1462
729 1462
730 1462
731 1462
732 1462
733 1462
734 1462
735 1462
736 1462
737 1462
738 1462
739 1462
740 1462
741 1462
742 1462
743 1462
744 1462
745 1462
746 1462
747 1462
748 1462
749 1462
750 1462
751 1462
752 1462
753 1462
754 1462
755 1462
756 1462
757 1462
758 1462
759 1447
760 1447
761 1447
762 1447
763 1447
764 1447
765 1447
766 1447
767 1447
768 1447
769 1447
770 1447
771 1447
772 1447
773 1447
774 1447
775 1447
776 1447
777 1447
778 1447
779 1447
780 1447
781 1447
782 1447
783 1447
784 1447
785 1447
786 1447
787 1447
788 1447
789 1447
790 1447
791 1447
792 1447
793 1447
794 1447
795 1447
796 1447
797 1447
798 1447
799 1447
800 1447
801 1447
802 1447
803 1447
804 1447
805 1447
806 1447
807 1447
808 1447
809 1447
810 1447
811 1447
812 1447
813 1447
814 1447
815 1447
816 1447
817 1447
818 1447
819 1447
820 1400
821 1400
822 1400
823 1400
824 1400
825 1400
826 1400
827 1400
828 1400
829 1400
830 1400
831 1400
832 1400
833 1400
834 1400
835 1400
836 1400
837 1400
838 1400
839 1400
840 1400
841 1400
842 1400
843 1400
844 1400
845 1400
846 1400
847 1400
848 1400
849 1400
850 1400
851 1400
852 1400
853 1400
854 1400
855 1400
856 1400
857 1400
858 1400
859 1400
860 1400
861 1400
862 1400
863 1400
864 1400
865 1400
866 1400
867 1400
868 1400
869 1400
870 1400
871 1400
872 1400
873 1377
874 1365
875 1365
876 1365
877 1365
878 1365
879 1365
880 1365
881 1365
882 1365
883 1365
884 1365
885 1365
886 1365
887 1365
888 1365
889 1365
890 1365
891 1365
892 1365
893 1365
894 1365
895 1365
896 1365
897 1356
898 1356
899 1356
900 1356
901 1356
902 1356
903 1356
904 1356
905 1356
906 1356
907 1356
908 1356
909 1356
910 1356
911 1356
912 1356
913 1356
914 1356
915 1356
916 1356
917 1356
918 1356
919 1356
920 1356
921 1356
922 1356
923 1356
924 1356
925 1356
926 1356
927 1356
928 1356
929 1356
930 1356
931 1356
932 1356
933 1356
934 1356
935 1356
936 1334
937 1334
938 1334
939 1334
940 1334
941 1334
942 1334
943 1334
944 1334
945 1334
946 1334
947 1334
948 1334
949 1334
950 1334
951 1334
952 1334
953 1334
954 1334
955 1334
956 1334
957 1334
958 1334
959 1334
960 1334
961 1334
962 1334
963 1334
964 1334
965 1334
966 1334
967 1334
968 1334
969 1334
970 1319
971 1319
972 1319
973 1319
974 1319
975 1319
976 1319
977 1319
978 1315
979 1315
980 1315
981 1315
982 1315
983 1315
984 1315
985 1315
986 1315
987 1315
988 1315
989 1315
990 1315
991 1315
992 1315
993 1315
994 1315
995 1315
996 1315
997 1315
998 1315
999 1315
Best: [[28,15,19,23,29,3,14,24,4,27],
       [31,26,11,30,6,10,12,5],
       [22,32,20,18,2,13],
       [21,16,9,25,8,17,7]], fitness: 1315
